modelito.lp
\ENCODING=ISO-8859-1
\Problem name: 

Minimize
 obj1: _max56#56 + _max59#59 + _max62#62 + _max65#65 + _max68#68 + _max71#71
       + _max74#74 + _max77#77 + _max80#80 + _max83#83 + _max86#86 + _max89#89
       + _max92#92 + _max95#95 + _max98#98 + _max101#101 + _max104#104
       + _max107#107 + _max110#110 + _max113#113 + _max116#116 + _max119#119
       + _max122#122 + _max125#125
Subject To
 c1:   x(0)_0#0 + x(0)_1#1 + x(0)_2#2 + x(0)_3#3 <= 2
 c2:   x(1)_0#4 + x(1)_1#5 + x(1)_2#6 + x(1)_3#7 <= 2
 c3:   x(0)_0#0 + x(1)_0#4  = 1
 c4:   x(0)_1#1 + x(1)_1#5  = 1
 c5:   x(0)_2#2 + x(1)_2#6  = 1
 c6:   x(0)_3#3 + x(1)_3#7  = 1
 c7:   x(0)_0#0 + x(0)_1#1 + x(0)_2#2 + x(0)_3#3 + x1#8  = 0
 c8:   x2#9  = 0
 c9:   x(1)_0#4 + x(1)_1#5 + x(1)_2#6 + x(1)_3#7 + x3#10  = 0
 c10:  x12#11  = 0
 c11:  - x(0)_0#0 + x(0)_1#1 + x(0)_2#2 + x(0)_3#3 + x13#12  = 0
 c12:  x14#13  = 0
 c13:  - x(1)_0#4 + x(1)_1#5 + x(1)_2#6 + x(1)_3#7 + x15#14  = 0
 c14:  x16#15  = 0
 c15:  x(0)_0#0 + x(0)_1#1 + x(0)_2#2 - x(0)_3#3 + x17#16  = 0
 c16:  x18#17  = 0
 c17:  x(1)_0#4 + x(1)_1#5 + x(1)_2#6 - x(1)_3#7 + x19#18  = 0
 c18:  x20#19  = 0
 c19:  x(0)_0#0 + x(0)_1#1 + x(0)_2#2 + x(0)_3#3 + x21#20  = 0
 c20:  x14#21  = 0
 c21:  x(1)_0#4 + x(1)_1#5 + x(1)_2#6 + x(1)_3#7 + x15#22  = 0
 c22:  x24#23  = 0
 c23:  x25#24  = 0
 c24:  x26#25  = 0
 c25:  x27#26  = 0
 c26:  x28#27  = 0
 c27:  x(0)_0#0 + x29#28  = 0
 c28:  x30#29  = 0
 c29:  x(1)_0#4 + x31#30  = 0
 c30:  x32#31  = 0
 c31:  x(0)_3#3 + x33#32  = 0
 c32:  x34#33  = 0
 c33:  x(1)_3#7 + x35#34  = 0
 c34:  x36#35  = 0
 c35:  x37#36  = 0
 c36:  x38#37  = 0
 c37:  x39#38  = 0
 c38:  x40#39  = 0
 c39:  x41#40  = 0
 c40:  x42#41  = 0
 c41:  x43#42  = 0
 c42:  x36#43  = 0
 c43:  x37#44  = 0
 c44:  x38#45  = 0
 c45:  x39#46  = 0
 c46:  x40#47  = 0
 c47:  x41#48  = 0
 c48:  x42#49  = 0
 c49:  x43#50  = 0
 c50:  x44#51  = 0
 c51:  x45#52  = 0
 c52:  x46#53  = 0
 c53:  x47#54  = 0
 c54:  x48#55  = 0
 c55:  - x1#8 + _max56#56 >= 0
 c56:  - x2#9 + _max56#56 >= 0
 c57:  x58#57 + x59#58  = 1
 c58:  - x3#10 + _max59#59 >= 0
 c59:  - x12#11 + _max59#59 >= 0
 c60:  x61#60 + x62#61  = 1
 c61:  - x13#12 + _max62#62 >= 0
 c62:  - x14#13 + _max62#62 >= 0
 c63:  x64#63 + x65#64  = 1
 c64:  - x15#14 + _max65#65 >= 0
 c65:  - x16#15 + _max65#65 >= 0
 c66:  x67#66 + x68#67  = 1
 c67:  - x17#16 + _max68#68 >= 0
 c68:  - x18#17 + _max68#68 >= 0
 c69:  x70#69 + x71#70  = 1
 c70:  - x19#18 + _max71#71 >= 0
 c71:  - x20#19 + _max71#71 >= 0
 c72:  x73#72 + x74#73  = 1
 c73:  - x21#20 + _max74#74 >= 0
 c74:  - x14#21 + _max74#74 >= 0
 c75:  x76#75 + x77#76  = 1
 c76:  - x15#22 + _max77#77 >= 0
 c77:  - x24#23 + _max77#77 >= 0
 c78:  x79#78 + x80#79  = 1
 c79:  - x25#24 + _max80#80 >= 0
 c80:  - x26#25 + _max80#80 >= 0
 c81:  x82#81 + x83#82  = 1
 c82:  - x27#26 + _max83#83 >= 0
 c83:  - x28#27 + _max83#83 >= 0
 c84:  x85#84 + x86#85  = 1
 c85:  - x29#28 + _max86#86 >= 0
 c86:  - x30#29 + _max86#86 >= 0
 c87:  x88#87 + x89#88  = 1
 c88:  - x31#30 + _max89#89 >= 0
 c89:  - x32#31 + _max89#89 >= 0
 c90:  x91#90 + x92#91  = 1
 c91:  - x33#32 + _max92#92 >= 0
 c92:  - x34#33 + _max92#92 >= 0
 c93:  x94#93 + x95#94  = 1
 c94:  - x35#34 + _max95#95 >= 0
 c95:  - x36#35 + _max95#95 >= 0
 c96:  x97#96 + x98#97  = 1
 c97:  - x37#36 + _max98#98 >= 0
 c98:  - x38#37 + _max98#98 >= 0
 c99:  x100#99 + x101#100  = 1
 c100: - x39#38 + _max101#101 >= 0
 c101: - x40#39 + _max101#101 >= 0
 c102: x103#102 + x104#103  = 1
 c103: - x41#40 + _max104#104 >= 0
 c104: - x42#41 + _max104#104 >= 0
 c105: x106#105 + x107#106  = 1
 c106: - x43#42 + _max107#107 >= 0
 c107: - x36#43 + _max107#107 >= 0
 c108: x109#108 + x110#109  = 1
 c109: - x37#44 + _max110#110 >= 0
 c110: - x38#45 + _max110#110 >= 0
 c111: x112#111 + x113#112  = 1
 c112: - x39#46 + _max113#113 >= 0
 c113: - x40#47 + _max113#113 >= 0
 c114: x115#114 + x116#115  = 1
 c115: - x41#48 + _max116#116 >= 0
 c116: - x42#49 + _max116#116 >= 0
 c117: x118#117 + x119#118  = 1
 c118: - x43#50 + _max119#119 >= 0
 c119: - x44#51 + _max119#119 >= 0
 c120: x121#120 + x122#121  = 1
 c121: - x45#52 + _max122#122 >= 0
 c122: - x46#53 + _max122#122 >= 0
 c123: x124#123 + x125#124  = 1
 c124: - x47#54 + _max125#125 >= 0
 c125: - x48#55 + _max125#125 >= 0
 c126: x127#126 + x128#127  = 1
 i1:  x58#57 = 1 -> _max56#56 - x1#8 =< 0
 i2:  x59#58 = 1 -> _max56#56 - x2#9 =< 0
 i3:  x61#60 = 1 -> _max59#59 - x3#10 =< 0
 i4:  x62#61 = 1 -> _max59#59 - x12#11 =< 0
 i5:  x64#63 = 1 -> _max62#62 - x13#12 =< 0
 i6:  x65#64 = 1 -> _max62#62 - x14#13 =< 0
 i7:  x67#66 = 1 -> _max65#65 - x15#14 =< 0
 i8:  x68#67 = 1 -> _max65#65 - x16#15 =< 0
 i9:  x70#69 = 1 -> _max68#68 - x17#16 =< 0
 i10: x71#70 = 1 -> _max68#68 - x18#17 =< 0
 i11: x73#72 = 1 -> _max71#71 - x19#18 =< 0
 i12: x74#73 = 1 -> _max71#71 - x20#19 =< 0
 i13: x76#75 = 1 -> _max74#74 - x21#20 =< 0
 i14: x77#76 = 1 -> _max74#74 - x14#21 =< 0
 i15: x79#78 = 1 -> _max77#77 - x15#22 =< 0
 i16: x80#79 = 1 -> _max77#77 - x24#23 =< 0
 i17: x82#81 = 1 -> _max80#80 - x25#24 =< 0
 i18: x83#82 = 1 -> _max80#80 - x26#25 =< 0
 i19: x85#84 = 1 -> _max83#83 - x27#26 =< 0
 i20: x86#85 = 1 -> _max83#83 - x28#27 =< 0
 i21: x88#87 = 1 -> _max86#86 - x29#28 =< 0
 i22: x89#88 = 1 -> _max86#86 - x30#29 =< 0
 i23: x91#90 = 1 -> _max89#89 - x31#30 =< 0
 i24: x92#91 = 1 -> _max89#89 - x32#31 =< 0
 i25: x94#93 = 1 -> _max92#92 - x33#32 =< 0
 i26: x95#94 = 1 -> _max92#92 - x34#33 =< 0
 i27: x97#96 = 1 -> _max95#95 - x35#34 =< 0
 i28: x98#97 = 1 -> _max95#95 - x36#35 =< 0
 i29: x100#99 = 1 -> _max98#98 - x37#36 =< 0
 i30: x101#100 = 1 -> _max98#98 - x38#37 =< 0
 i31: x103#102 = 1 -> _max101#101 - x39#38 =< 0
 i32: x104#103 = 1 -> _max101#101 - x40#39 =< 0
 i33: x106#105 = 1 -> _max104#104 - x41#40 =< 0
 i34: x107#106 = 1 -> _max104#104 - x42#41 =< 0
 i35: x109#108 = 1 -> _max107#107 - x43#42 =< 0
 i36: x110#109 = 1 -> _max107#107 - x36#43 =< 0
 i37: x112#111 = 1 -> _max110#110 - x37#44 =< 0
 i38: x113#112 = 1 -> _max110#110 - x38#45 =< 0
 i39: x115#114 = 1 -> _max113#113 - x39#46 =< 0
 i40: x116#115 = 1 -> _max113#113 - x40#47 =< 0
 i41: x118#117 = 1 -> _max116#116 - x41#48 =< 0
 i42: x119#118 = 1 -> _max116#116 - x42#49 =< 0
 i43: x121#120 = 1 -> _max119#119 - x43#50 =< 0
 i44: x122#121 = 1 -> _max119#119 - x44#51 =< 0
 i45: x124#123 = 1 -> _max122#122 - x45#52 =< 0
 i46: x125#124 = 1 -> _max122#122 - x46#53 =< 0
 i47: x127#126 = 1 -> _max125#125 - x47#54 =< 0
 i48: x128#127 = 1 -> _max125#125 - x48#55 =< 0
Bounds
 0 <= x(0)_0#0 <= 1
 0 <= x(0)_1#1 <= 1
 0 <= x(0)_2#2 <= 1
 0 <= x(0)_3#3 <= 1
 0 <= x(1)_0#4 <= 1
 0 <= x(1)_1#5 <= 1
 0 <= x(1)_2#6 <= 1
 0 <= x(1)_3#7 <= 1
      x1#8 Free
      x2#9 Free
      x3#10 Free
      x12#11 Free
      x13#12 Free
      x14#13 Free
      x15#14 Free
      x16#15 Free
      x17#16 Free
      x18#17 Free
      x19#18 Free
      x20#19 Free
      x21#20 Free
      x14#21 Free
      x15#22 Free
      x24#23 Free
      x25#24 Free
      x26#25 Free
      x27#26 Free
      x28#27 Free
      x29#28 Free
      x30#29 Free
      x31#30 Free
      x32#31 Free
      x33#32 Free
      x34#33 Free
      x35#34 Free
      x36#35 Free
      x37#36 Free
      x38#37 Free
      x39#38 Free
      x40#39 Free
      x41#40 Free
      x42#41 Free
      x43#42 Free
      x36#43 Free
      x37#44 Free
      x38#45 Free
      x39#46 Free
      x40#47 Free
      x41#48 Free
      x42#49 Free
      x43#50 Free
      x44#51 Free
      x45#52 Free
      x46#53 Free
      x47#54 Free
      x48#55 Free
      _max56#56 Free
 0 <= x58#57 <= 1
 0 <= x59#58 <= 1
      _max59#59 Free
 0 <= x61#60 <= 1
 0 <= x62#61 <= 1
      _max62#62 Free
 0 <= x64#63 <= 1
 0 <= x65#64 <= 1
      _max65#65 Free
 0 <= x67#66 <= 1
 0 <= x68#67 <= 1
      _max68#68 Free
 0 <= x70#69 <= 1
 0 <= x71#70 <= 1
      _max71#71 Free
 0 <= x73#72 <= 1
 0 <= x74#73 <= 1
      _max74#74 Free
 0 <= x76#75 <= 1
 0 <= x77#76 <= 1
      _max77#77 Free
 0 <= x79#78 <= 1
 0 <= x80#79 <= 1
      _max80#80 Free
 0 <= x82#81 <= 1
 0 <= x83#82 <= 1
      _max83#83 Free
 0 <= x85#84 <= 1
 0 <= x86#85 <= 1
      _max86#86 Free
 0 <= x88#87 <= 1
 0 <= x89#88 <= 1
      _max89#89 Free
 0 <= x91#90 <= 1
 0 <= x92#91 <= 1
      _max92#92 Free
 0 <= x94#93 <= 1
 0 <= x95#94 <= 1
      _max95#95 Free
 0 <= x97#96 <= 1
 0 <= x98#97 <= 1
      _max98#98 Free
 0 <= x100#99 <= 1
 0 <= x101#100 <= 1
      _max101#101 Free
 0 <= x103#102 <= 1
 0 <= x104#103 <= 1
      _max104#104 Free
 0 <= x106#105 <= 1
 0 <= x107#106 <= 1
      _max107#107 Free
 0 <= x109#108 <= 1
 0 <= x110#109 <= 1
      _max110#110 Free
 0 <= x112#111 <= 1
 0 <= x113#112 <= 1
      _max113#113 Free
 0 <= x115#114 <= 1
 0 <= x116#115 <= 1
      _max116#116 Free
 0 <= x118#117 <= 1
 0 <= x119#118 <= 1
      _max119#119 Free
 0 <= x121#120 <= 1
 0 <= x122#121 <= 1
      _max122#122 Free
 0 <= x124#123 <= 1
 0 <= x125#124 <= 1
      _max125#125 Free
 0 <= x127#126 <= 1
 0 <= x128#127 <= 1
Binaries
 x58#57  x59#58  x61#60  x62#61  x64#63  x65#64  x67#66  x68#67  x70#69 
 x71#70  x73#72  x74#73  x76#75  x77#76  x79#78  x80#79  x82#81  x83#82 
 x85#84  x86#85  x88#87  x89#88  x91#90  x92#91  x94#93  x95#94  x97#96 
 x98#97  x100#99  x101#100  x103#102  x104#103  x106#105  x107#106  x109#108 
 x110#109  x112#111  x113#112  x115#114  x116#115  x118#117  x119#118 
 x121#120  x122#121  x124#123  x125#124  x127#126  x128#127 
Generals
 x(0)_0#0  x(0)_1#1  x(0)_2#2  x(0)_3#3  x(1)_0#4  x(1)_1#5  x(1)_2#6 
 x(1)_3#7 
End
