modelito.txt
\ This file has been generated by DOcplex
\ ENCODING=ISO-8859-1
\Problem name: docplex_model1

Minimize
 obj: _max54 + _max57 + _max60 + _max63 + _max66 + _max69 + _max72 + _max75
      + _max78 + _max81 + _max84 + _max87 + _max90 + _max93 + _max96 + _max99
      + _max102 + _max105 + _max108 + _max111 + _max114 + _max117 + _max120
      + _max123
Subject To
 c1: x0_0 + x0_1 + x0_2 + x0_3 <= 2
 c2: x1_0 + x1_1 + x1_2 + x1_3 <= 2
 c3: x0_0 + x1_0 = 1
 c4: x0_1 + x1_1 = 1
 c5: x0_2 + x1_2 = 1
 c6: x0_3 + x1_3 = 1
 c7: x9 = 0
 c8: x10 = 0
 c9: x11 = 0
 c10: x12 = 0
 c11: x13 - x0_1 - x0_2 - x0_3 = 0
 c12: x14 = 0
 c13: x15 - x1_1 - x1_2 - x1_3 = 0
 c14: x16 = 0
 c15: x17 - x0_0 - x0_1 - x0_2 = 0
 c16: x18 = 0
 c17: x19 - x1_0 - x1_1 - x1_2 = 0
 c18: x20 = 0
 c19: x21 - x0_0 - x0_1 - x0_2 - x0_3 = 0
 c20: x22 = 0
 c21: x23 - x1_0 - x1_1 - x1_2 - x1_3 = 0
 c22: x24 = 0
 c23: x25 - x0_0 - x0_1 - x0_2 - x0_3 = 0
 c24: x26 = 0
 c25: x27 - x1_0 - x1_1 - x1_2 - x1_3 = 0
 c26: x28 = 0
 c27: x29 + x0_1 + x0_2 + x0_3 = 0
 c28: x30 = 0
 c29: x31 + x1_1 + x1_2 + x1_3 = 0
 c30: x32 = 0
 c31: x33 + x0_0 + x0_1 + x0_2 - x0_3 = 0
 c32: x34 = 0
 c33: x35 + x1_0 + x1_1 + x1_2 - x1_3 = 0
 c34: x36 = 0
 c35: x37 + x0_0 + x0_1 + x0_2 + x0_3 = 0
 c36: x38 = 0
 c37: x39 + x1_0 + x1_1 + x1_2 + x1_3 = 0
 c38: x40 = 0
 c39: x41 + x0_0 + x0_1 + x0_2 + x0_3 = 0
 c40: x42 = 0
 c41: x43 + x1_0 + x1_1 + x1_2 + x1_3 = 0
 c42: x44 = 0
 c43: x45 = 0
 c44: x46 = 0
 c45: x47 + x0_3 = 0
 c46: x48 = 0
 c47: x49 + x1_3 = 0
 c48: x50 = 0
 c49: x51 = 0
 c50: x52 = 0
 c51: x53 = 0
 c52: x54 = 0
 c53: _max54 - x9 >= 0
 c54: _max54 - x10 >= 0
 c55: x56 + x57 = 1
 c56: _max57 - x11 >= 0
 c57: _max57 - x12 >= 0
 c58: x59 + x60 = 1
 c59: _max60 - x13 >= 0
 c60: _max60 - x14 >= 0
 c61: x62 + x63 = 1
 c62: _max63 - x15 >= 0
 c63: _max63 - x16 >= 0
 c64: x65 + x66 = 1
 c65: _max66 - x17 >= 0
 c66: _max66 - x18 >= 0
 c67: x68 + x69 = 1
 c68: _max69 - x19 >= 0
 c69: _max69 - x20 >= 0
 c70: x71 + x72 = 1
 c71: _max72 - x21 >= 0
 c72: _max72 - x22 >= 0
 c73: x74 + x75 = 1
 c74: _max75 - x23 >= 0
 c75: _max75 - x24 >= 0
 c76: x77 + x78 = 1
 c77: _max78 - x25 >= 0
 c78: _max78 - x26 >= 0
 c79: x80 + x81 = 1
 c80: _max81 - x27 >= 0
 c81: _max81 - x28 >= 0
 c82: x83 + x84 = 1
 c83: _max84 - x29 >= 0
 c84: _max84 - x30 >= 0
 c85: x86 + x87 = 1
 c86: _max87 - x31 >= 0
 c87: _max87 - x32 >= 0
 c88: x89 + x90 = 1
 c89: _max90 - x33 >= 0
 c90: _max90 - x34 >= 0
 c91: x92 + x93 = 1
 c92: _max93 - x35 >= 0
 c93: _max93 - x36 >= 0
 c94: x95 + x96 = 1
 c95: _max96 - x37 >= 0
 c96: _max96 - x38 >= 0
 c97: x98 + x99 = 1
 c98: _max99 - x39 >= 0
 c99: _max99 - x40 >= 0
 c100: x101 + x102 = 1
 c101: _max102 - x41 >= 0
 c102: _max102 - x42 >= 0
 c103: x104 + x105 = 1
 c104: _max105 - x43 >= 0
 c105: _max105 - x44 >= 0
 c106: x107 + x108 = 1
 c107: _max108 - x0_0 >= 0
 c108: _max108 - x45 >= 0
 c109: x110 + x111 = 1
 c110: _max111 - x1_0 >= 0
 c111: _max111 - x46 >= 0
 c112: x113 + x114 = 1
 c113: _max114 - x47 >= 0
 c114: _max114 - x48 >= 0
 c115: x116 + x117 = 1
 c116: _max117 - x49 >= 0
 c117: _max117 - x50 >= 0
 c118: x119 + x120 = 1
 c119: _max120 - x51 >= 0
 c120: _max120 - x52 >= 0
 c121: x122 + x123 = 1
 c122: _max123 - x53 >= 0
 c123: _max123 - x54 >= 0
 c124: x125 + x126 = 1
 lc1: x56 = 1 -> _max54 - x9 <= 0
 lc2: x57 = 1 -> _max54 - x10 <= 0
 lc3: x59 = 1 -> _max57 - x11 <= 0
 lc4: x60 = 1 -> _max57 - x12 <= 0
 lc5: x62 = 1 -> _max60 - x13 <= 0
 lc6: x63 = 1 -> _max60 - x14 <= 0
 lc7: x65 = 1 -> _max63 - x15 <= 0
 lc8: x66 = 1 -> _max63 - x16 <= 0
 lc9: x68 = 1 -> _max66 - x17 <= 0
 lc10: x69 = 1 -> _max66 - x18 <= 0
 lc11: x71 = 1 -> _max69 - x19 <= 0
 lc12: x72 = 1 -> _max69 - x20 <= 0
 lc13: x74 = 1 -> _max72 - x21 <= 0
 lc14: x75 = 1 -> _max72 - x22 <= 0
 lc15: x77 = 1 -> _max75 - x23 <= 0
 lc16: x78 = 1 -> _max75 - x24 <= 0
 lc17: x80 = 1 -> _max78 - x25 <= 0
 lc18: x81 = 1 -> _max78 - x26 <= 0
 lc19: x83 = 1 -> _max81 - x27 <= 0
 lc20: x84 = 1 -> _max81 - x28 <= 0
 lc21: x86 = 1 -> _max84 - x29 <= 0
 lc22: x87 = 1 -> _max84 - x30 <= 0
 lc23: x89 = 1 -> _max87 - x31 <= 0
 lc24: x90 = 1 -> _max87 - x32 <= 0
 lc25: x92 = 1 -> _max90 - x33 <= 0
 lc26: x93 = 1 -> _max90 - x34 <= 0
 lc27: x95 = 1 -> _max93 - x35 <= 0
 lc28: x96 = 1 -> _max93 - x36 <= 0
 lc29: x98 = 1 -> _max96 - x37 <= 0
 lc30: x99 = 1 -> _max96 - x38 <= 0
 lc31: x101 = 1 -> _max99 - x39 <= 0
 lc32: x102 = 1 -> _max99 - x40 <= 0
 lc33: x104 = 1 -> _max102 - x41 <= 0
 lc34: x105 = 1 -> _max102 - x42 <= 0
 lc35: x107 = 1 -> _max105 - x43 <= 0
 lc36: x108 = 1 -> _max105 - x44 <= 0
 lc37: x110 = 1 -> _max108 - x0_0 <= 0
 lc38: x111 = 1 -> _max108 - x45 <= 0
 lc39: x113 = 1 -> _max111 - x1_0 <= 0
 lc40: x114 = 1 -> _max111 - x46 <= 0
 lc41: x116 = 1 -> _max114 - x47 <= 0
 lc42: x117 = 1 -> _max114 - x48 <= 0
 lc43: x119 = 1 -> _max117 - x49 <= 0
 lc44: x120 = 1 -> _max117 - x50 <= 0
 lc45: x122 = 1 -> _max120 - x51 <= 0
 lc46: x123 = 1 -> _max120 - x52 <= 0
 lc47: x125 = 1 -> _max123 - x53 <= 0
 lc48: x126 = 1 -> _max123 - x54 <= 0

Bounds
       x0_0 <= 1
       x0_1 <= 1
       x0_2 <= 1
       x0_3 <= 1
       x1_0 <= 1
       x1_1 <= 1
       x1_2 <= 1
       x1_3 <= 1
       x9 Free
       x10 Free
       x11 Free
       x12 Free
       x13 Free
       x14 Free
       x15 Free
       x16 Free
       x17 Free
       x18 Free
       x19 Free
       x20 Free
       x21 Free
       x22 Free
       x23 Free
       x24 Free
       x25 Free
       x26 Free
       x27 Free
       x28 Free
       x29 Free
       x30 Free
       x31 Free
       x32 Free
       x33 Free
       x34 Free
       x35 Free
       x36 Free
       x37 Free
       x38 Free
       x39 Free
       x40 Free
       x41 Free
       x42 Free
       x43 Free
       x44 Free
       x45 Free
       x46 Free
       x47 Free
       x48 Free
       x49 Free
       x50 Free
       x51 Free
       x52 Free
       x53 Free
       x54 Free
       _max54 Free
 0 <= x56 <= 1
 0 <= x57 <= 1
       _max57 Free
 0 <= x59 <= 1
 0 <= x60 <= 1
       _max60 Free
 0 <= x62 <= 1
 0 <= x63 <= 1
       _max63 Free
 0 <= x65 <= 1
 0 <= x66 <= 1
       _max66 Free
 0 <= x68 <= 1
 0 <= x69 <= 1
       _max69 Free
 0 <= x71 <= 1
 0 <= x72 <= 1
       _max72 Free
 0 <= x74 <= 1
 0 <= x75 <= 1
       _max75 Free
 0 <= x77 <= 1
 0 <= x78 <= 1
       _max78 Free
 0 <= x80 <= 1
 0 <= x81 <= 1
       _max81 Free
 0 <= x83 <= 1
 0 <= x84 <= 1
       _max84 Free
 0 <= x86 <= 1
 0 <= x87 <= 1
       _max87 Free
 0 <= x89 <= 1
 0 <= x90 <= 1
       _max90 Free
 0 <= x92 <= 1
 0 <= x93 <= 1
       _max93 Free
 0 <= x95 <= 1
 0 <= x96 <= 1
       _max96 Free
 0 <= x98 <= 1
 0 <= x99 <= 1
       _max99 Free
 0 <= x101 <= 1
 0 <= x102 <= 1
       _max102 Free
 0 <= x104 <= 1
 0 <= x105 <= 1
       _max105 Free
 0 <= x107 <= 1
 0 <= x108 <= 1
       _max108 Free
 0 <= x110 <= 1
 0 <= x111 <= 1
       _max111 Free
 0 <= x113 <= 1
 0 <= x114 <= 1
       _max114 Free
 0 <= x116 <= 1
 0 <= x117 <= 1
       _max117 Free
 0 <= x119 <= 1
 0 <= x120 <= 1
       _max120 Free
 0 <= x122 <= 1
 0 <= x123 <= 1
       _max123 Free
 0 <= x125 <= 1
 0 <= x126 <= 1

Binaries
 x56 x57 x59 x60 x62 x63 x65 x66 x68 x69 x71 x72 x74 x75 x77 x78 x80 x81 x83 x84
 x86 x87 x89 x90 x92 x93 x95 x96 x98 x99 x101 x102 x104 x105 x107 x108 x110 x111
 x113 x114 x116 x117 x119 x120 x122 x123 x125 x126

Generals
 x0_0 x0_1 x0_2 x0_3 x1_0 x1_1 x1_2 x1_3
End
